StudentsNr = 10;
InstructorsNr = 70;
DaysNr = 1;
SlotsPerDay = 40;
AvailabilitySlotsLenght = 10;
RoomNr = 1;
ProgrammNr = 2;
DegreeNr = 2;
RolesNr = 3;
CoursesNr = 10;
InstructorsProgramm = [{1, 2}, {1}, {2}, {1}, {1}, {2}, {1}, {1, 2}, {1, 2}, {1, 2}, {1}, {1}, {2}, {1}, {1, 2}, {1}, {2}, {2}, {1}, {1}, {2}, {1, 2}, {2}, {2}, {2}, {1}, {2}, {1, 2}, {1, 2}, {2}, {1}, {2}, {2}, {2}, {2}, {1}, {1}, {2}, {1, 2}, {2}, {1, 2}, {1, 2}, {2}, {1}, {2}, {1}, {2}, {1}, {1, 2}, {1}, {1, 2}, {1, 2}, {2}, {1}, {1, 2}, {1}, {1, 2}, {2}, {1}, {1}, {2}, {2}, {2}, {1}, {1, 2}, {1}, {1}, {1, 2}, {1}, {1, 2}];
InstructorRolesPerProgramm = [|{1, 2, 5, 8, 9, 10, 11, 14, 15, 16, 19, 26, 29, 39, 42, 44, 46, 48, 49, 50, 51, 57, 59, 64, 65, 69}, {5, 8, 10, 15, 16, 22, 29, 31, 37, 39, 41, 48, 49, 54, 57, 59, 68, 70}, {1, 8, 9, 15, 16, 22, 26, 36, 39, 49, 56, 59, 60, 66, 70}|{1, 8, 9, 10, 15, 24, 27, 29, 33, 34, 35, 39, 42, 45, 47, 49, 51, 57, 63, 65}, {8, 10, 13, 15, 18, 22, 27, 29, 38, 39, 41, 45, 47, 49, 53, 57, 58, 61, 68, 70}, {1, 3, 6, 8, 9, 15, 18, 22, 32, 33, 34, 35, 38, 39, 49, 61, 63, 70}|];
InstructorsAvailability = [|1, 1, 1, 1, |0, 1, 1, 1, |1, 1, 1, 1, |1, 1, 1, 1, |1, 1, 0, 1, |0, 1, 1, 1, |0, 0, 1, 0, |1, 1, 1, 1, |0, 1, 1, 0, |0, 1, 0, 0, |0, 1, 0, 1, |1, 1, 0, 0, |0, 1, 1, 1, |1, 1, 1, 1, |1, 1, 1, 0, |0, 1, 1, 1, |0, 0, 1, 1, |0, 0, 0, 1, |0, 1, 1, 1, |0, 1, 0, 1, |0, 0, 0, 0, |0, 1, 1, 1, |1, 0, 1, 1, |1, 1, 1, 1, |1, 1, 1, 0, |0, 1, 1, 1, |1, 1, 1, 1, |1, 1, 1, 1, |0, 0, 0, 0, |1, 1, 1, 1, |0, 1, 1, 1, |0, 1, 0, 1, |1, 1, 0, 0, |0, 0, 1, 0, |1, 1, 0, 1, |0, 1, 1, 0, |1, 0, 0, 1, |0, 1, 1, 1, |1, 0, 1, 1, |1, 1, 1, 1, |0, 0, 1, 1, |0, 1, 1, 1, |1, 1, 1, 1, |0, 0, 1, 1, |1, 1, 1, 0, |0, 1, 1, 1, |0, 1, 1, 1, |1, 1, 1, 1, |1, 1, 1, 1, |1, 1, 1, 1, |1, 1, 1, 1, |1, 1, 1, 1, |1, 1, 1, 1, |1, 0, 1, 1, |0, 1, 1, 0, |0, 1, 1, 0, |0, 0, 1, 1, |0, 0, 1, 1, |1, 1, 1, 1, |0, 1, 1, 1, |0, 1, 1, 1, |0, 0, 1, 1, |1, 1, 1, 1, |0, 1, 1, 1, |1, 0, 0, 1, |0, 1, 1, 1, |1, 1, 1, 1, |1, 1, 1, 1, |0, 1, 1, 1, |1, 1, 1, 1|];
StudentsProgramm = [1, 1, 1, 2, 1, 1, 2, 2, 1, 1];
StudentsDegree = [1, 1, 1, 2, 1, 2, 1, 1, 2, 1];
StudentsSupervisorId = [31, 22, 7, 29, 14, 52, 15, 61, 26, 44];
StudentsCourseIds = [{2, 3}, {8, 9}, {2, 7}, {1, 4, 5, 6, 7, 9, 10}, {4, 9}, {2, 3, 4, 6, 7, 8, 9}, {3, 6}, {1, 6}, {2, 3, 4, 5, 8, 9, 10}, {7, 9}];
StudentsAvailability = [|0, 0, 0, 0, |0, 0, 1, 1, |0, 0, 1, 1, |0, 1, 1, 1, |1, 1, 1, 1, |0, 1, 1, 0, |0, 0, 0, 0, |0, 1, 1, 1, |1, 1, 1, 1, |1, 0, 0, 0|];
TheoryticalMinCard = [0, 1, 1, 0, 0, 1, 0, 0, 1, 0];
CoursesInstructorIds = [{1, 12, 15, 17, 18, 26, 32, 39, 44, 45, 48, 55, 56, 57, 59}, {2, 4, 8, 9, 10, 11, 13, 14, 15, 16, 17, 18, 19, 21, 22, 24, 26, 27, 28, 29, 30, 31, 32, 33, 34, 37, 40, 41, 42, 45, 47, 51, 53, 54, 56, 57, 58, 59, 60, 61, 62, 64, 67, 68}, {2, 3, 5, 6, 7, 8, 9, 12, 14, 18, 19, 20, 21, 24, 25, 26, 27, 29, 31, 32, 33, 35, 36, 37, 38, 39, 41, 46, 47, 49, 50, 52, 55, 58, 59, 60, 61, 62, 63, 65, 66, 67, 68}, {2, 4, 7, 8, 14, 15, 19, 24, 26, 37, 43, 46, 48, 54, 55, 56, 59, 65, 69}, {1, 2, 3, 4, 5, 9, 11, 12, 13, 14, 15, 18, 19, 20, 21, 22, 24, 25, 28, 29, 30, 31, 33, 35, 37, 40, 42, 43, 44, 48, 49, 50, 53, 55, 58, 59, 60, 61, 63, 64, 66, 69, 70}, {1, 2, 3, 5, 6, 7, 10, 13, 14, 15, 16, 17, 18, 19, 20, 21, 22, 23, 24, 25, 29, 30, 31, 32, 33, 36, 39, 40, 41, 42, 44, 45, 47, 50, 51, 53, 54, 61, 62, 63, 66, 68, 69, 70}, {1, 2, 3, 5, 6, 8, 14, 16, 18, 20, 22, 24, 26, 27, 33, 35, 36, 38, 39, 41, 42, 43, 47, 48, 50, 54, 57, 58, 59, 62, 66, 68, 69, 70}, {40, 47}, {1, 3, 4, 5, 6, 22, 30, 36, 41, 46, 52, 54, 56, 63, 67, 69}, {3, 4, 5, 6, 7, 8, 12, 14, 17, 19, 23, 27, 29, 30, 32, 35, 36, 39, 40, 42, 44, 45, 46, 47, 51, 55, 70}];
RolesDemands = [15, 3, 3];
RolesContinuity = [3];
ExamLen = [2, 2, 2, 1, 2, 1, 2, 2, 1, 2];
LunchTsMinLen = 1;
LunchStarts = [10..26];
SupervisorAvailable = 0;
OptimalLunchLenght = [2, 1];
OptimalStartTs = [1, 0];
OptimalFinishTs = [1, 40];
MinimizeRooms = 300;
RolesSoftContinuity = [|1, 2, 3|0, 4, 0|];
SameDegreeInRoom = 20;
Mergeability = 2;
